NAME : traveling-santa-2018-prime-paths.29885.tour
COMMENT : Length = 29885
COMMENT : Found by LKH [Keld Helsgaun] Sun Jun 12 20:00:13 2022
TYPE : TOUR
DIMENSION : 100
TOUR_SECTION
1
61
17
40
23
41
90
70
42
63
44
21
95
56
93
59
75
98
87
88
43
96
76
60
34
39
27
92
3
99
73
12
29
35
97
11
20
66
53
37
26
71
85
36
10
79
7
25
55
83
46
78
2
19
89
33
64
100
32
54
6
51
68
16
50
77
67
18
91
8
94
38
22
48
24
15
86
49
69
5
72
82
30
80
62
4
28
45
58
9
13
65
74
84
57
52
47
31
14
81
-1
EOF
